GeneratedTests/Random_9/Random_9_16.tsp
NAME: Random_9_16
TYPE: TSP
DIMENSION: 9
EDGE_WEIGHT_TYPE: EUC_2D
NODE_COORD_SECTION
1 11.048483 7.3531575
2 11.301212 17.926619
3 15.346952 24.555075
4 21.350529 12.033093
5 4.9578424 12.223692
6 19.1057 2.8289044
7 12.833332 12.334298
8 11.004106 4.6183357
9 11.108849 8.864607
EOF
