GeneratedTests/Random_9/Random_9_16.txt
NAME: Random_9_16
TYPE: TSP
DIMENSION: 9
EDGE_WEIGHT_TYPE: EUC_2D
NODE_COORD_SECTION
1 22.371956 0.5769287
2 8.515705 21.665543
3 2.9570165 15.750394
4 16.672396 14.051976
5 22.114 3.0007
6 24.280363 23.324347
7 10.786282 25.589783
8 19.297274 22.920778
9 14.194147 5.2801695
EOF
